
Gurobi 8.0.1 (win64, Python) logging started 10/23/18 23:37:53

Academic license - for non-commercial use only
Optimize a model with 36 rows, 96 columns and 107 nonzeros
Coefficient statistics:
  Matrix range     [3e-01, 4e+01]
  Objective range  [3e+01, 4e+03]
  Bounds range     [0e+00, 0e+00]
  RHS range        [4e+01, 4e+01]
Presolve removed 36 rows and 96 columns
Presolve time: 0.02s
Presolve: All rows and columns removed
Iteration    Objective       Primal Inf.    Dual Inf.      Time
       0    1.2960000e+05   0.000000e+00   0.000000e+00      0s

Solved in 0 iterations and 0.02 seconds
Optimal objective  1.296000000e+05
Optimize a model with 48 rows, 96 columns and 177 nonzeros
Coefficient statistics:
  Matrix range     [3e-01, 4e+01]
  Objective range  [3e+01, 4e+03]
  Bounds range     [0e+00, 0e+00]
  RHS range        [4e+01, 3e+03]
Presolve removed 36 rows and 74 columns
Presolve time: 0.01s
Presolved: 12 rows, 22 columns, 43 nonzeros

Iteration    Objective       Primal Inf.    Dual Inf.      Time
       0    1.2960000e+05   0.000000e+00   0.000000e+00      0s
       0    1.2960000e+05   0.000000e+00   0.000000e+00      0s

Solved in 0 iterations and 0.01 seconds
Optimal objective  1.296000000e+05
Optimize a model with 48 rows, 96 columns and 177 nonzeros
Coefficient statistics:
  Matrix range     [3e-01, 4e+01]
  Objective range  [3e+01, 4e+03]
  Bounds range     [0e+00, 0e+00]
  RHS range        [4e+01, 3e+03]
Presolve removed 36 rows and 74 columns
Presolve time: 0.01s
Presolved: 12 rows, 22 columns, 43 nonzeros

Iteration    Objective       Primal Inf.    Dual Inf.      Time
       0    1.2960000e+05   0.000000e+00   0.000000e+00      0s
       0    1.2960000e+05   0.000000e+00   0.000000e+00      0s

Solved in 0 iterations and 0.01 seconds
Optimal objective  1.296000000e+05
Optimize a model with 48 rows, 96 columns and 177 nonzeros
Coefficient statistics:
  Matrix range     [3e-01, 4e+01]
  Objective range  [3e+01, 4e+03]
  Bounds range     [0e+00, 0e+00]
  RHS range        [4e+01, 3e+03]
Presolve removed 36 rows and 74 columns
Presolve time: 0.00s
Presolved: 12 rows, 22 columns, 43 nonzeros

Iteration    Objective       Primal Inf.    Dual Inf.      Time
       0    1.2960000e+05   0.000000e+00   0.000000e+00      0s
       0    1.2960000e+05   0.000000e+00   0.000000e+00      0s

Solved in 0 iterations and 0.01 seconds
Optimal objective  1.296000000e+05
Optimize a model with 48 rows, 96 columns and 177 nonzeros
Coefficient statistics:
  Matrix range     [3e-01, 4e+01]
  Objective range  [3e+01, 4e+03]
  Bounds range     [0e+00, 0e+00]
  RHS range        [4e+01, 3e+03]
Presolve removed 36 rows and 74 columns
Presolve time: 0.01s
Presolved: 12 rows, 22 columns, 43 nonzeros

Iteration    Objective       Primal Inf.    Dual Inf.      Time
       0    1.2960000e+05   0.000000e+00   0.000000e+00      0s
       0    1.2960000e+05   0.000000e+00   0.000000e+00      0s

Solved in 0 iterations and 0.01 seconds
Optimal objective  1.296000000e+05
Optimize a model with 52 rows, 96 columns and 181 nonzeros
Coefficient statistics:
  Matrix range     [3e-01, 4e+01]
  Objective range  [3e+01, 4e+03]
  Bounds range     [0e+00, 0e+00]
  RHS range        [3e+01, 3e+03]
Presolve removed 28 rows and 38 columns
Presolve time: 0.01s
Presolved: 24 rows, 58 columns, 90 nonzeros

Iteration    Objective       Primal Inf.    Dual Inf.      Time
       0    8.4500000e+04   3.975000e+01   0.000000e+00      0s
       3    2.5010000e+05   0.000000e+00   0.000000e+00      0s

Solved in 3 iterations and 0.01 seconds
Optimal objective  2.501000000e+05
Optimize a model with 52 rows, 96 columns and 181 nonzeros
Variable types: 0 continuous, 96 integer (0 binary)
Coefficient statistics:
  Matrix range     [3e-01, 4e+01]
  Objective range  [3e+01, 4e+03]
  Bounds range     [0e+00, 0e+00]
  RHS range        [3e+01, 3e+03]
Found heuristic solution: objective 250100.00000
Presolve removed 40 rows and 74 columns
Presolve time: 0.01s
Presolved: 12 rows, 22 columns, 43 nonzeros
Variable types: 0 continuous, 22 integer (0 binary)

Explored 0 nodes (0 simplex iterations) in 0.03 seconds
Thread count was 8 (of 8 available processors)

Solution count 1: 250100 

Optimal solution found (tolerance 1.00e-04)
Best objective 2.501000000000e+05, best bound 2.501000000000e+05, gap 0.0000%
Optimize a model with 52 rows, 96 columns and 181 nonzeros
Variable types: 0 continuous, 96 integer (0 binary)
Coefficient statistics:
  Matrix range     [3e-01, 4e+01]
  Objective range  [2e+03, 2e+03]
  Bounds range     [0e+00, 0e+00]
  RHS range        [3e+01, 3e+03]
Found heuristic solution: objective 72000.000000
Presolve removed 52 rows and 96 columns
Presolve time: 0.00s
Presolve: All rows and columns removed

Explored 0 nodes (0 simplex iterations) in 0.01 seconds
Thread count was 1 (of 8 available processors)

Solution count 1: 72000 

Optimal solution found (tolerance 1.00e-04)
Best objective 7.200000000000e+04, best bound 7.200000000000e+04, gap 0.0000%
Optimize a model with 52 rows, 96 columns and 181 nonzeros
Variable types: 0 continuous, 96 integer (0 binary)
Coefficient statistics:
  Matrix range     [3e-01, 4e+01]
  Objective range  [3e+01, 4e+03]
  Bounds range     [0e+00, 0e+00]
  RHS range        [3e+01, 3e+03]
Found heuristic solution: objective 250100.00000
Presolve removed 40 rows and 74 columns
Presolve time: 0.00s
Presolved: 12 rows, 22 columns, 43 nonzeros
Variable types: 0 continuous, 22 integer (0 binary)

Explored 0 nodes (0 simplex iterations) in 0.01 seconds
Thread count was 8 (of 8 available processors)

Solution count 1: 250100 

Optimal solution found (tolerance 1.00e-04)
Best objective 2.501000000000e+05, best bound 2.501000000000e+05, gap 0.0000%
Optimize a model with 52 rows, 96 columns and 181 nonzeros
Variable types: 0 continuous, 96 integer (0 binary)
Coefficient statistics:
  Matrix range     [3e-01, 4e+01]
  Objective range  [3e+01, 4e+03]
  Bounds range     [0e+00, 0e+00]
  RHS range        [3e+01, 3e+03]
Found heuristic solution: objective 4065100.0000
Presolve removed 4 rows and 25 columns
Presolve time: 0.00s
Presolved: 48 rows, 71 columns, 152 nonzeros
Variable types: 0 continuous, 71 integer (0 binary)

Root relaxation: objective 3.308550e+06, 57 iterations, 0.00 seconds

    Nodes    |    Current Node    |     Objective Bounds      |     Work
 Expl Unexpl |  Obj  Depth IntInf | Incumbent    BestBd   Gap | It/Node Time

     0     0 3308550.00    0    1 4065100.00 3308550.00  18.6%     -    0s
H    0     0                    3309350.0000 3308550.00  0.02%     -    0s
H    0     0                    3308750.0000 3308550.00  0.01%     -    0s
     0     0 3308750.00    0    7 3308750.00 3308750.00  0.00%     -    0s

Cutting planes:
  Gomory: 1

Explored 1 nodes (59 simplex iterations) in 0.04 seconds
Thread count was 8 (of 8 available processors)

Solution count 3: 3.30875e+06 3.30935e+06 4.0651e+06 

Optimal solution found (tolerance 1.00e-04)
Best objective 3.308750000000e+06, best bound 3.308750000000e+06, gap 0.0000%

Gurobi 8.0.1 (win64, Python) logging started 10/24/18 05:12:21

Academic license - for non-commercial use only
Optimize a model with 52 rows, 96 columns and 181 nonzeros
Variable types: 0 continuous, 96 integer (0 binary)
Coefficient statistics:
  Matrix range     [3e-01, 4e+01]
  Objective range  [3e+01, 4e+03]
  Bounds range     [0e+00, 0e+00]
  RHS range        [3e+01, 3e+03]
Found heuristic solution: objective 4065100.0000
Presolve removed 4 rows and 25 columns
Presolve time: 0.01s
Presolved: 48 rows, 71 columns, 152 nonzeros
Variable types: 0 continuous, 71 integer (0 binary)

Root relaxation: objective 3.308550e+06, 57 iterations, 0.00 seconds

    Nodes    |    Current Node    |     Objective Bounds      |     Work
 Expl Unexpl |  Obj  Depth IntInf | Incumbent    BestBd   Gap | It/Node Time

     0     0 3308550.00    0    1 4065100.00 3308550.00  18.6%     -    0s
H    0     0                    3309350.0000 3308550.00  0.02%     -    0s
H    0     0                    3308750.0000 3308550.00  0.01%     -    0s
     0     0 3308750.00    0    7 3308750.00 3308750.00  0.00%     -    0s

Cutting planes:
  Gomory: 1

Explored 1 nodes (59 simplex iterations) in 0.07 seconds
Thread count was 8 (of 8 available processors)

Solution count 3: 3.30875e+06 3.30935e+06 4.0651e+06 

Optimal solution found (tolerance 1.00e-04)
Best objective 3.308750000000e+06, best bound 3.308750000000e+06, gap 0.0000%
Optimize a model with 48 rows, 88 columns and 166 nonzeros
Variable types: 0 continuous, 88 integer (0 binary)
Coefficient statistics:
  Matrix range     [3e-01, 4e+01]
  Objective range  [3e+01, 4e+03]
  Bounds range     [0e+00, 0e+00]
  RHS range        [3e+01, 3e+03]
Found heuristic solution: objective 3575100.0000
Presolve removed 4 rows and 23 columns
Presolve time: 0.00s
Presolved: 44 rows, 65 columns, 139 nonzeros
Variable types: 0 continuous, 65 integer (0 binary)

Root relaxation: objective 2.876150e+06, 51 iterations, 0.00 seconds

    Nodes    |    Current Node    |     Objective Bounds      |     Work
 Expl Unexpl |  Obj  Depth IntInf | Incumbent    BestBd   Gap | It/Node Time

     0     0 2876150.00    0    1 3575100.00 2876150.00  19.6%     -    0s
H    0     0                    2876950.0000 2876150.00  0.03%     -    0s
H    0     0                    2876350.0000 2876150.00  0.01%     -    0s
     0     0 2876350.00    0    7 2876350.00 2876350.00  0.00%     -    0s

Cutting planes:
  Gomory: 1

Explored 1 nodes (53 simplex iterations) in 0.02 seconds
Thread count was 8 (of 8 available processors)

Solution count 3: 2.87635e+06 2.87695e+06 3.5751e+06 

Optimal solution found (tolerance 1.00e-04)
Best objective 2.876350000000e+06, best bound 2.876350000000e+06, gap 0.0000%
Optimize a model with 48 rows, 88 columns and 166 nonzeros
Variable types: 0 continuous, 88 integer (0 binary)
Coefficient statistics:
  Matrix range     [3e-01, 4e+01]
  Objective range  [3e+01, 4e+03]
  Bounds range     [0e+00, 0e+00]
  RHS range        [3e+01, 3e+03]
Found heuristic solution: objective 3575100.0000
Presolve removed 4 rows and 23 columns
Presolve time: 0.00s
Presolved: 44 rows, 65 columns, 139 nonzeros
Variable types: 0 continuous, 65 integer (0 binary)

Root relaxation: objective 2.876150e+06, 51 iterations, 0.00 seconds

    Nodes    |    Current Node    |     Objective Bounds      |     Work
 Expl Unexpl |  Obj  Depth IntInf | Incumbent    BestBd   Gap | It/Node Time

     0     0 2876150.00    0    1 3575100.00 2876150.00  19.6%     -    0s
H    0     0                    2876950.0000 2876150.00  0.03%     -    0s
H    0     0                    2876350.0000 2876150.00  0.01%     -    0s
     0     0 2876350.00    0    7 2876350.00 2876350.00  0.00%     -    0s

Cutting planes:
  Gomory: 1

Explored 1 nodes (53 simplex iterations) in 0.02 seconds
Thread count was 8 (of 8 available processors)

Solution count 3: 2.87635e+06 2.87695e+06 3.5751e+06 

Optimal solution found (tolerance 1.00e-04)
Best objective 2.876350000000e+06, best bound 2.876350000000e+06, gap 0.0000%
Optimize a model with 48 rows, 88 columns and 166 nonzeros
Variable types: 0 continuous, 88 integer (0 binary)
Coefficient statistics:
  Matrix range     [3e-01, 4e+01]
  Objective range  [3e+01, 4e+03]
  Bounds range     [0e+00, 0e+00]
  RHS range        [3e+01, 3e+03]
Found heuristic solution: objective 3575100.0000
Presolve removed 4 rows and 23 columns
Presolve time: 0.00s
Presolved: 44 rows, 65 columns, 139 nonzeros
Variable types: 0 continuous, 65 integer (0 binary)

Root relaxation: objective 2.876150e+06, 51 iterations, 0.00 seconds

    Nodes    |    Current Node    |     Objective Bounds      |     Work
 Expl Unexpl |  Obj  Depth IntInf | Incumbent    BestBd   Gap | It/Node Time

     0     0 2876150.00    0    1 3575100.00 2876150.00  19.6%     -    0s
H    0     0                    2876950.0000 2876150.00  0.03%     -    0s
H    0     0                    2876350.0000 2876150.00  0.01%     -    0s
     0     0 2876350.00    0    7 2876350.00 2876350.00  0.00%     -    0s

Cutting planes:
  Gomory: 1

Explored 1 nodes (53 simplex iterations) in 0.03 seconds
Thread count was 8 (of 8 available processors)

Solution count 3: 2.87635e+06 2.87695e+06 3.5751e+06 

Optimal solution found (tolerance 1.00e-04)
Best objective 2.876350000000e+06, best bound 2.876350000000e+06, gap 0.0000%
Optimize a model with 52 rows, 96 columns and 181 nonzeros
Variable types: 0 continuous, 96 integer (0 binary)
Coefficient statistics:
  Matrix range     [3e-01, 4e+01]
  Objective range  [3e+01, 4e+03]
  Bounds range     [0e+00, 0e+00]
  RHS range        [3e+01, 3e+03]
Found heuristic solution: objective 4065100.0000
Presolve removed 4 rows and 25 columns
Presolve time: 0.00s
Presolved: 48 rows, 71 columns, 152 nonzeros
Variable types: 0 continuous, 71 integer (0 binary)

Root relaxation: objective 3.308550e+06, 57 iterations, 0.00 seconds

    Nodes    |    Current Node    |     Objective Bounds      |     Work
 Expl Unexpl |  Obj  Depth IntInf | Incumbent    BestBd   Gap | It/Node Time

     0     0 3308550.00    0    1 4065100.00 3308550.00  18.6%     -    0s
H    0     0                    3309350.0000 3308550.00  0.02%     -    0s
H    0     0                    3308750.0000 3308550.00  0.01%     -    0s
     0     0 3308750.00    0    7 3308750.00 3308750.00  0.00%     -    0s

Cutting planes:
  Gomory: 1

Explored 1 nodes (59 simplex iterations) in 0.03 seconds
Thread count was 8 (of 8 available processors)

Solution count 3: 3.30875e+06 3.30935e+06 4.0651e+06 

Optimal solution found (tolerance 1.00e-04)
Best objective 3.308750000000e+06, best bound 3.308750000000e+06, gap 0.0000%
Optimize a model with 52 rows, 96 columns and 181 nonzeros
Variable types: 0 continuous, 96 integer (0 binary)
Coefficient statistics:
  Matrix range     [3e-01, 4e+01]
  Objective range  [3e+01, 4e+03]
  Bounds range     [0e+00, 0e+00]
  RHS range        [3e+01, 3e+03]
Found heuristic solution: objective 4065100.0000
Presolve removed 4 rows and 25 columns
Presolve time: 0.00s
Presolved: 48 rows, 71 columns, 152 nonzeros
Variable types: 0 continuous, 71 integer (0 binary)

Root relaxation: objective 3.308550e+06, 57 iterations, 0.00 seconds

    Nodes    |    Current Node    |     Objective Bounds      |     Work
 Expl Unexpl |  Obj  Depth IntInf | Incumbent    BestBd   Gap | It/Node Time

     0     0 3308550.00    0    1 4065100.00 3308550.00  18.6%     -    0s
H    0     0                    3309350.0000 3308550.00  0.02%     -    0s
H    0     0                    3308750.0000 3308550.00  0.01%     -    0s
     0     0 3308750.00    0    7 3308750.00 3308750.00  0.00%     -    0s

Cutting planes:
  Gomory: 1

Explored 1 nodes (59 simplex iterations) in 0.03 seconds
Thread count was 8 (of 8 available processors)

Solution count 3: 3.30875e+06 3.30935e+06 4.0651e+06 

Optimal solution found (tolerance 1.00e-04)
Best objective 3.308750000000e+06, best bound 3.308750000000e+06, gap 0.0000%
Optimize a model with 52 rows, 96 columns and 181 nonzeros
Variable types: 0 continuous, 96 integer (0 binary)
Coefficient statistics:
  Matrix range     [3e-01, 4e+01]
  Objective range  [3e+01, 4e+03]
  Bounds range     [0e+00, 0e+00]
  RHS range        [3e+01, 3e+03]
Found heuristic solution: objective 4065100.0000
Presolve removed 4 rows and 25 columns
Presolve time: 0.00s
Presolved: 48 rows, 71 columns, 152 nonzeros
Variable types: 0 continuous, 71 integer (0 binary)

Root relaxation: objective 3.308550e+06, 57 iterations, 0.00 seconds

    Nodes    |    Current Node    |     Objective Bounds      |     Work
 Expl Unexpl |  Obj  Depth IntInf | Incumbent    BestBd   Gap | It/Node Time

     0     0 3308550.00    0    1 4065100.00 3308550.00  18.6%     -    0s
H    0     0                    3309350.0000 3308550.00  0.02%     -    0s
H    0     0                    3308750.0000 3308550.00  0.01%     -    0s
     0     0 3308750.00    0    7 3308750.00 3308750.00  0.00%     -    0s

Cutting planes:
  Gomory: 1

Explored 1 nodes (59 simplex iterations) in 0.02 seconds
Thread count was 8 (of 8 available processors)

Solution count 3: 3.30875e+06 3.30935e+06 4.0651e+06 

Optimal solution found (tolerance 1.00e-04)
Best objective 3.308750000000e+06, best bound 3.308750000000e+06, gap 0.0000%

    Variable            X 
-------------------------
        W(1)           36 
        P(1)         1440 
        C(1)          860 
        W(2)           36 
        P(2)         1440 
        C(2)         1360 
        F(3)           11 
        W(3)           25 
        P(3)         1000 
        F(4)            2 
        W(4)           23 
        P(4)          920 
        W(5)           23 
        I(5)          120 
        P(5)          900 
        W(6)           23 
        I(6)           90 
        P(6)          920 
        H(7)            1 
        W(7)           24 
        P(7)          960 
        H(8)           16 
        W(8)           40 
        I(8)          400 
        P(8)         1600 
        W(9)           40 
        P(9)         1600 
       W(10)           40 
       P(10)         1600 
       C(10)          900 
       W(11)           40 
       P(11)         1600 
       C(11)         1400 
       F(12)            4 
       W(12)           36 
       I(12)          500 
       P(12)         1440 
       C(12)         1860 
Optimize a model with 52 rows, 96 columns and 181 nonzeros
Variable types: 0 continuous, 96 integer (0 binary)
Coefficient statistics:
  Matrix range     [3e-01, 4e+01]
  Objective range  [3e+01, 4e+03]
  Bounds range     [0e+00, 0e+00]
  RHS range        [3e+01, 3e+03]
Found heuristic solution: objective 4065100.0000
Presolve removed 4 rows and 25 columns
Presolve time: 0.00s
Presolved: 48 rows, 71 columns, 152 nonzeros
Variable types: 0 continuous, 71 integer (0 binary)

Root relaxation: objective 3.308550e+06, 57 iterations, 0.00 seconds

    Nodes    |    Current Node    |     Objective Bounds      |     Work
 Expl Unexpl |  Obj  Depth IntInf | Incumbent    BestBd   Gap | It/Node Time

     0     0 3308550.00    0    1 4065100.00 3308550.00  18.6%     -    0s
H    0     0                    3309350.0000 3308550.00  0.02%     -    0s
H    0     0                    3308750.0000 3308550.00  0.01%     -    0s
     0     0 3308750.00    0    7 3308750.00 3308750.00  0.00%     -    0s

Cutting planes:
  Gomory: 1

Explored 1 nodes (59 simplex iterations) in 0.02 seconds
Thread count was 8 (of 8 available processors)

Solution count 3: 3.30875e+06 3.30935e+06 4.0651e+06 

Optimal solution found (tolerance 1.00e-04)
Best objective 3.308750000000e+06, best bound 3.308750000000e+06, gap 0.0000%
Optimize a model with 52 rows, 96 columns and 181 nonzeros
Variable types: 0 continuous, 96 integer (0 binary)
Coefficient statistics:
  Matrix range     [3e-01, 4e+01]
  Objective range  [3e+01, 4e+03]
  Bounds range     [0e+00, 0e+00]
  RHS range        [3e+01, 3e+03]
Found heuristic solution: objective 4065100.0000
Presolve removed 4 rows and 25 columns
Presolve time: 0.00s
Presolved: 48 rows, 71 columns, 152 nonzeros
Variable types: 0 continuous, 71 integer (0 binary)

Root relaxation: objective 3.308550e+06, 57 iterations, 0.00 seconds

    Nodes    |    Current Node    |     Objective Bounds      |     Work
 Expl Unexpl |  Obj  Depth IntInf | Incumbent    BestBd   Gap | It/Node Time

     0     0 3308550.00    0    1 4065100.00 3308550.00  18.6%     -    0s
H    0     0                    3309350.0000 3308550.00  0.02%     -    0s
H    0     0                    3308750.0000 3308550.00  0.01%     -    0s
     0     0 3308750.00    0    7 3308750.00 3308750.00  0.00%     -    0s

Cutting planes:
  Gomory: 1

Explored 1 nodes (59 simplex iterations) in 0.03 seconds
Thread count was 8 (of 8 available processors)

Solution count 3: 3.30875e+06 3.30935e+06 4.0651e+06 

Optimal solution found (tolerance 1.00e-04)
Best objective 3.308750000000e+06, best bound 3.308750000000e+06, gap 0.0000%
Optimize a model with 52 rows, 96 columns and 181 nonzeros
Variable types: 0 continuous, 96 integer (0 binary)
Coefficient statistics:
  Matrix range     [3e-01, 4e+01]
  Objective range  [3e+01, 4e+03]
  Bounds range     [0e+00, 0e+00]
  RHS range        [3e+01, 3e+03]
Found heuristic solution: objective 4065100.0000
Presolve removed 4 rows and 25 columns
Presolve time: 0.00s
Presolved: 48 rows, 71 columns, 152 nonzeros
Variable types: 0 continuous, 71 integer (0 binary)

Root relaxation: objective 3.308550e+06, 57 iterations, 0.00 seconds

    Nodes    |    Current Node    |     Objective Bounds      |     Work
 Expl Unexpl |  Obj  Depth IntInf | Incumbent    BestBd   Gap | It/Node Time

     0     0 3308550.00    0    1 4065100.00 3308550.00  18.6%     -    0s
H    0     0                    3309350.0000 3308550.00  0.02%     -    0s
H    0     0                    3308750.0000 3308550.00  0.01%     -    0s
     0     0 3308750.00    0    7 3308750.00 3308750.00  0.00%     -    0s

Cutting planes:
  Gomory: 1

Explored 1 nodes (59 simplex iterations) in 0.02 seconds
Thread count was 8 (of 8 available processors)

Solution count 3: 3.30875e+06 3.30935e+06 4.0651e+06 

Optimal solution found (tolerance 1.00e-04)
Best objective 3.308750000000e+06, best bound 3.308750000000e+06, gap 0.0000%
Optimize a model with 52 rows, 96 columns and 181 nonzeros
Variable types: 0 continuous, 96 integer (0 binary)
Coefficient statistics:
  Matrix range     [3e-01, 4e+01]
  Objective range  [3e+01, 4e+03]
  Bounds range     [0e+00, 0e+00]
  RHS range        [3e+01, 3e+03]
Found heuristic solution: objective 4065100.0000
Presolve removed 4 rows and 25 columns
Presolve time: 0.00s
Presolved: 48 rows, 71 columns, 152 nonzeros
Variable types: 0 continuous, 71 integer (0 binary)

Root relaxation: objective 3.308550e+06, 57 iterations, 0.00 seconds

    Nodes    |    Current Node    |     Objective Bounds      |     Work
 Expl Unexpl |  Obj  Depth IntInf | Incumbent    BestBd   Gap | It/Node Time

     0     0 3308550.00    0    1 4065100.00 3308550.00  18.6%     -    0s
H    0     0                    3309350.0000 3308550.00  0.02%     -    0s
H    0     0                    3308750.0000 3308550.00  0.01%     -    0s
     0     0 3308750.00    0    7 3308750.00 3308750.00  0.00%     -    0s

Cutting planes:
  Gomory: 1

Explored 1 nodes (59 simplex iterations) in 0.02 seconds
Thread count was 8 (of 8 available processors)

Solution count 3: 3.30875e+06 3.30935e+06 4.0651e+06 

Optimal solution found (tolerance 1.00e-04)
Best objective 3.308750000000e+06, best bound 3.308750000000e+06, gap 0.0000%
Optimize a model with 52 rows, 96 columns and 181 nonzeros
Variable types: 0 continuous, 96 integer (0 binary)
Coefficient statistics:
  Matrix range     [3e-01, 4e+01]
  Objective range  [3e+01, 4e+03]
  Bounds range     [0e+00, 0e+00]
  RHS range        [3e+01, 3e+03]
Found heuristic solution: objective 4065100.0000
Presolve removed 4 rows and 25 columns
Presolve time: 0.00s
Presolved: 48 rows, 71 columns, 152 nonzeros
Variable types: 0 continuous, 71 integer (0 binary)

Root relaxation: objective 3.308550e+06, 57 iterations, 0.00 seconds

    Nodes    |    Current Node    |     Objective Bounds      |     Work
 Expl Unexpl |  Obj  Depth IntInf | Incumbent    BestBd   Gap | It/Node Time

     0     0 3308550.00    0    1 4065100.00 3308550.00  18.6%     -    0s
H    0     0                    3309350.0000 3308550.00  0.02%     -    0s
H    0     0                    3308750.0000 3308550.00  0.01%     -    0s
     0     0 3308750.00    0    7 3308750.00 3308750.00  0.00%     -    0s

Cutting planes:
  Gomory: 1

Explored 1 nodes (59 simplex iterations) in 0.02 seconds
Thread count was 8 (of 8 available processors)

Solution count 3: 3.30875e+06 3.30935e+06 4.0651e+06 

Optimal solution found (tolerance 1.00e-04)
Best objective 3.308750000000e+06, best bound 3.308750000000e+06, gap 0.0000%
Optimize a model with 52 rows, 96 columns and 181 nonzeros
Variable types: 0 continuous, 96 integer (0 binary)
Coefficient statistics:
  Matrix range     [3e-01, 4e+01]
  Objective range  [3e+01, 1e+08]
  Bounds range     [0e+00, 0e+00]
  RHS range        [3e+01, 3e+03]
Found heuristic solution: objective 3.603935e+09
Presolve removed 4 rows and 25 columns
Presolve time: 0.00s
Presolved: 48 rows, 71 columns, 152 nonzeros
Variable types: 0 continuous, 71 integer (0 binary)

Root relaxation: objective 3.352550e+06, 62 iterations, 0.00 seconds

    Nodes    |    Current Node    |     Objective Bounds      |     Work
 Expl Unexpl |  Obj  Depth IntInf | Incumbent    BestBd   Gap | It/Node Time

*    0     0               0    3352550.0000 3352550.00  0.00%     -    0s

Explored 0 nodes (62 simplex iterations) in 0.02 seconds
Thread count was 8 (of 8 available processors)

Solution count 2: 3.35255e+06 3.60394e+09 

Optimal solution found (tolerance 1.00e-04)
Best objective 3.352550000000e+06, best bound 3.352550000000e+06, gap 0.0000%
Optimize a model with 52 rows, 96 columns and 181 nonzeros
Variable types: 0 continuous, 96 integer (0 binary)
Coefficient statistics:
  Matrix range     [3e-01, 4e+01]
  Objective range  [3e+01, 1e+08]
  Bounds range     [0e+00, 0e+00]
  RHS range        [3e+01, 3e+03]
Found heuristic solution: objective 3.603935e+09
Presolve removed 4 rows and 25 columns
Presolve time: 0.00s
Presolved: 48 rows, 71 columns, 152 nonzeros
Variable types: 0 continuous, 71 integer (0 binary)

Root relaxation: objective 3.352550e+06, 62 iterations, 0.00 seconds

    Nodes    |    Current Node    |     Objective Bounds      |     Work
 Expl Unexpl |  Obj  Depth IntInf | Incumbent    BestBd   Gap | It/Node Time

*    0     0               0    3352550.0000 3352550.00  0.00%     -    0s

Explored 0 nodes (62 simplex iterations) in 0.02 seconds
Thread count was 8 (of 8 available processors)

Solution count 2: 3.35255e+06 3.60394e+09 

Optimal solution found (tolerance 1.00e-04)
Best objective 3.352550000000e+06, best bound 3.352550000000e+06, gap 0.0000%
Optimize a model with 52 rows, 96 columns and 181 nonzeros
Variable types: 0 continuous, 96 integer (0 binary)
Coefficient statistics:
  Matrix range     [3e-01, 4e+01]
  Objective range  [3e+01, 4e+03]
  Bounds range     [0e+00, 0e+00]
  RHS range        [3e+01, 3e+03]
Found heuristic solution: objective 4065100.0000
Presolve removed 4 rows and 25 columns
Presolve time: 0.00s
Presolved: 48 rows, 71 columns, 152 nonzeros
Variable types: 0 continuous, 71 integer (0 binary)

Root relaxation: objective 3.308550e+06, 57 iterations, 0.00 seconds

    Nodes    |    Current Node    |     Objective Bounds      |     Work
 Expl Unexpl |  Obj  Depth IntInf | Incumbent    BestBd   Gap | It/Node Time

     0     0 3308550.00    0    1 4065100.00 3308550.00  18.6%     -    0s
H    0     0                    3309350.0000 3308550.00  0.02%     -    0s
H    0     0                    3308750.0000 3308550.00  0.01%     -    0s
     0     0 3308750.00    0    7 3308750.00 3308750.00  0.00%     -    0s

Cutting planes:
  Gomory: 1

Explored 1 nodes (59 simplex iterations) in 0.02 seconds
Thread count was 8 (of 8 available processors)

Solution count 3: 3.30875e+06 3.30935e+06 4.0651e+06 

Optimal solution found (tolerance 1.00e-04)
Best objective 3.308750000000e+06, best bound 3.308750000000e+06, gap 0.0000%
Optimize a model with 52 rows, 96 columns and 181 nonzeros
Variable types: 0 continuous, 96 integer (0 binary)
Coefficient statistics:
  Matrix range     [3e-01, 4e+01]
  Objective range  [3e+01, 1e+06]
  Bounds range     [0e+00, 0e+00]
  RHS range        [3e+01, 3e+03]
Found heuristic solution: objective 3.993546e+07
Presolve removed 4 rows and 25 columns
Presolve time: 0.00s
Presolved: 48 rows, 71 columns, 152 nonzeros
Variable types: 0 continuous, 71 integer (0 binary)

Root relaxation: objective 3.352550e+06, 62 iterations, 0.00 seconds

    Nodes    |    Current Node    |     Objective Bounds      |     Work
 Expl Unexpl |  Obj  Depth IntInf | Incumbent    BestBd   Gap | It/Node Time

*    0     0               0    3352550.0000 3352550.00  0.00%     -    0s

Explored 0 nodes (62 simplex iterations) in 0.02 seconds
Thread count was 8 (of 8 available processors)

Solution count 2: 3.35255e+06 3.99355e+07 

Optimal solution found (tolerance 1.00e-04)
Best objective 3.352550000000e+06, best bound 3.352550000000e+06, gap 0.0000%
Optimize a model with 52 rows, 96 columns and 181 nonzeros
Variable types: 0 continuous, 96 integer (0 binary)
Coefficient statistics:
  Matrix range     [3e-01, 4e+01]
  Objective range  [3e+01, 1e+06]
  Bounds range     [0e+00, 0e+00]
  RHS range        [3e+01, 3e+03]
Found heuristic solution: objective 2.540987e+08
Presolve removed 4 rows and 25 columns
Presolve time: 0.00s
Presolved: 48 rows, 71 columns, 152 nonzeros
Variable types: 0 continuous, 71 integer (0 binary)

Root relaxation: objective 1.097593e+07, 65 iterations, 0.00 seconds

    Nodes    |    Current Node    |     Objective Bounds      |     Work
 Expl Unexpl |  Obj  Depth IntInf | Incumbent    BestBd   Gap | It/Node Time

     0     0 1.0976e+07    0   44 2.5410e+08 1.0976e+07  95.7%     -    0s
H    0     0                    2.205091e+07 1.0976e+07  50.2%     -    0s
H    0     0                    1.337561e+07 1.0976e+07  17.9%     -    0s
H    0     0                    1.304582e+07 1.0976e+07  15.9%     -    0s
H    0     0                    1.280847e+07 1.0976e+07  14.3%     -    0s
H    0     0                    1.252677e+07 1.0976e+07  12.4%     -    0s
H    0     0                    1.160992e+07 1.0976e+07  5.46%     -    0s
H    0     0                    1.160564e+07 1.1190e+07  3.58%     -    0s
H    0     0                    1.159962e+07 1.1190e+07  3.53%     -    0s
*    0     0               0    1.158659e+07 1.1587e+07  0.00%     -    0s

Cutting planes:
  Gomory: 2

Explored 1 nodes (68 simplex iterations) in 0.04 seconds
Thread count was 8 (of 8 available processors)

Solution count 10: 1.15866e+07 1.15996e+07 1.16056e+07 ... 2.54099e+08

Optimal solution found (tolerance 1.00e-04)
Best objective 1.158659200000e+07, best bound 1.158659200000e+07, gap 0.0000%
Optimize a model with 52 rows, 96 columns and 181 nonzeros
Variable types: 0 continuous, 96 integer (0 binary)
Coefficient statistics:
  Matrix range     [3e-01, 4e+01]
  Objective range  [3e+01, 1e+06]
  Bounds range     [0e+00, 0e+00]
  RHS range        [3e+01, 3e+03]
Found heuristic solution: objective 2.216099e+09
Presolve removed 4 rows and 25 columns
Presolve time: 0.00s
Presolved: 48 rows, 71 columns, 152 nonzeros
Variable types: 0 continuous, 71 integer (0 binary)

Root relaxation: objective 1.097593e+07, 65 iterations, 0.00 seconds

    Nodes    |    Current Node    |     Objective Bounds      |     Work
 Expl Unexpl |  Obj  Depth IntInf | Incumbent    BestBd   Gap | It/Node Time

     0     0 1.0976e+07    0   44 2.2161e+09 1.0976e+07   100%     -    0s
H    0     0                    2.592091e+07 1.0976e+07  57.7%     -    0s
H    0     0                    2.039561e+07 1.0976e+07  46.2%     -    0s
H    0     0                    1.700582e+07 1.0976e+07  35.5%     -    0s
H    0     0                    1.160992e+07 1.0976e+07  5.46%     -    0s
H    0     0                    1.159962e+07 1.1288e+07  2.69%     -    0s
*    0     0               0    1.158659e+07 1.1587e+07  0.00%     -    0s

Cutting planes:
  Gomory: 2

Explored 1 nodes (68 simplex iterations) in 0.03 seconds
Thread count was 8 (of 8 available processors)

Solution count 7: 1.15866e+07 1.15996e+07 1.16099e+07 ... 2.2161e+09

Optimal solution found (tolerance 1.00e-04)
Best objective 1.158659200000e+07, best bound 1.158659200000e+07, gap 0.0000%
Optimize a model with 52 rows, 96 columns and 181 nonzeros
Variable types: 0 continuous, 96 integer (0 binary)
Coefficient statistics:
  Matrix range     [3e-01, 4e+01]
  Objective range  [3e+01, 1e+06]
  Bounds range     [0e+00, 0e+00]
  RHS range        [3e+01, 3e+03]
Found heuristic solution: objective 2.540987e+08
Presolve removed 4 rows and 25 columns
Presolve time: 0.00s
Presolved: 48 rows, 71 columns, 152 nonzeros
Variable types: 0 continuous, 71 integer (0 binary)

Root relaxation: objective 1.385239e+07, 50 iterations, 0.00 seconds

    Nodes    |    Current Node    |     Objective Bounds      |     Work
 Expl Unexpl |  Obj  Depth IntInf | Incumbent    BestBd   Gap | It/Node Time

     0     0 1.3852e+07    0   33 2.5410e+08 1.3852e+07  94.5%     -    0s
H    0     0                    1.739776e+07 1.3852e+07  20.4%     -    0s
H    0     0                    1.653034e+07 1.3852e+07  16.2%     -    0s
H    0     0                    1.458456e+07 1.3852e+07  5.02%     -    0s
H    0     0                    1.458324e+07 1.4012e+07  3.92%     -    0s
H    0     0                    1.458184e+07 1.4012e+07  3.91%     -    0s
H    0     0                    1.457944e+07 1.4012e+07  3.89%     -    0s
*    0     0               0    1.457064e+07 1.4571e+07  0.00%     -    0s

Cutting planes:
  Gomory: 2

Explored 1 nodes (51 simplex iterations) in 0.03 seconds
Thread count was 8 (of 8 available processors)

Solution count 8: 1.45706e+07 1.45794e+07 1.45818e+07 ... 2.54099e+08

Optimal solution found (tolerance 1.00e-04)
Best objective 1.457063900000e+07, best bound 1.457063900000e+07, gap 0.0000%
Optimize a model with 52 rows, 96 columns and 181 nonzeros
Variable types: 0 continuous, 96 integer (0 binary)
Coefficient statistics:
  Matrix range     [3e-01, 5e+01]
  Objective range  [3e+01, 1e+06]
  Bounds range     [0e+00, 0e+00]
  RHS range        [3e+01, 3e+03]
Found heuristic solution: objective 2.540987e+08
Presolve removed 4 rows and 25 columns
Presolve time: 0.00s
Presolved: 48 rows, 71 columns, 152 nonzeros
Variable types: 0 continuous, 71 integer (0 binary)

Root relaxation: objective 7.465836e+06, 49 iterations, 0.00 seconds

    Nodes    |    Current Node    |     Objective Bounds      |     Work
 Expl Unexpl |  Obj  Depth IntInf | Incumbent    BestBd   Gap | It/Node Time

     0     0 7465836.18    0   35 2.5410e+08 7465836.18  97.1%     -    0s
H    0     0                    8930917.0000 7465836.18  16.4%     -    0s
H    0     0                    8732511.0000 7465836.18  14.5%     -    0s
H    0     0                    7846824.0000 7465836.18  4.86%     -    0s
H    0     0                    7846324.0000 7465836.18  4.85%     -    0s
H    0     0                    7845474.0000 7496587.85  4.45%     -    0s
     0     0 7791492.00    0   17 7845474.00 7791492.00  0.69%     -    0s
     0     0     cutoff    0      7845474.00 7845474.00  0.00%     -    0s

Cutting planes:
  Gomory: 1
  MIR: 11
  StrongCG: 12

Explored 1 nodes (72 simplex iterations) in 0.04 seconds
Thread count was 8 (of 8 available processors)

Solution count 6: 7.84547e+06 7.84632e+06 7.84682e+06 ... 2.54099e+08

Optimal solution found (tolerance 1.00e-04)
Best objective 7.845474000000e+06, best bound 7.845474000000e+06, gap 0.0000%
Optimize a model with 52 rows, 96 columns and 181 nonzeros
Variable types: 0 continuous, 96 integer (0 binary)
Coefficient statistics:
  Matrix range     [3e-01, 5e+01]
  Objective range  [3e+01, 1e+06]
  Bounds range     [0e+00, 0e+00]
  RHS range        [3e+01, 3e+03]
Found heuristic solution: objective 2.540987e+08
Presolve removed 4 rows and 25 columns
Presolve time: 0.00s
Presolved: 48 rows, 71 columns, 152 nonzeros
Variable types: 0 continuous, 71 integer (0 binary)

Root relaxation: objective 7.465836e+06, 49 iterations, 0.00 seconds

    Nodes    |    Current Node    |     Objective Bounds      |     Work
 Expl Unexpl |  Obj  Depth IntInf | Incumbent    BestBd   Gap | It/Node Time

     0     0 7465836.18    0   35 2.5410e+08 7465836.18  97.1%     -    0s
H    0     0                    8930917.0000 7465836.18  16.4%     -    0s
H    0     0                    8732511.0000 7465836.18  14.5%     -    0s
H    0     0                    7846824.0000 7465836.18  4.86%     -    0s
H    0     0                    7846324.0000 7465836.18  4.85%     -    0s
H    0     0                    7845474.0000 7496587.85  4.45%     -    0s
     0     0 7791492.00    0   17 7845474.00 7791492.00  0.69%     -    0s
     0     0     cutoff    0      7845474.00 7845474.00  0.00%     -    0s

Cutting planes:
  Gomory: 1
  MIR: 11
  StrongCG: 12

Explored 1 nodes (72 simplex iterations) in 0.03 seconds
Thread count was 8 (of 8 available processors)

Solution count 6: 7.84547e+06 7.84632e+06 7.84682e+06 ... 2.54099e+08

Optimal solution found (tolerance 1.00e-04)
Best objective 7.845474000000e+06, best bound 7.845474000000e+06, gap 0.0000%
